44542.20 0
0 106 103 1 50 52 53 51 49 46 48 47 2 45 3 40 42 43 44 41 39 36 38 37 4 35 5 32 30 33 34 31 29 26 28 27 6 25 7 22 23 24 21 20 8 19 16 17 18 15 14 11 13 12 10 9 55 58 59 56 57 54 60 62 63 61 64 65 66 69 68 71 67 70 73 76 77 72 74 75 78 81 80 83 79 82 85 88 89 84 86 87 90 93 92 95 91 94 97 100 101 96 98 99 102 105 104